words_hard_train/5051.qaiger
aag 129 23 0 1 106
2
4
12
14
18
20
24
28
34
42
62
66
84
104
120
138
154
174
190
200
210
226
240
259
6 2 5
8 3 4
10 7 9
16 12 14
22 19 21
26 22 25
30 26 29
32 31 14
36 33 35
38 37 14
40 17 39
44 40 43
46 44 14
48 11 46
50 10 47
52 49 51
54 18 14
56 54 20
58 55 21
60 57 59
64 60 62
68 66 18
70 65 69
72 61 63
74 71 73
76 23 14
78 77 24
80 76 25
82 79 81
86 82 85
88 83 84
90 87 89
92 74 90
94 93 89
96 27 14
98 97 29
100 96 28
102 99 101
106 103 105
108 102 104
110 107 109
112 95 110
114 113 109
116 32 34
118 117 37
122 119 121
124 118 120
126 123 125
128 115 126
130 129 125
132 38 12
134 39 13
136 133 135
140 137 139
142 136 138
144 141 143
146 131 144
148 147 143
150 41 42
152 45 151
156 153 155
158 152 154
160 157 159
162 149 160
164 163 159
166 53 165
168 52 164
170 167 169
172 65 73
176 172 175
178 173 174
180 177 179
182 67 19
184 180 183
186 75 91
188 187 93
192 188 191
194 184 193
196 114 127
198 197 129
202 198 201
204 194 203
206 130 145
208 207 147
212 209 210
214 204 213
216 189 190
218 199 200
220 217 219
222 94 111
224 223 113
228 225 226
230 220 229
232 214 230
234 170 232
236 148 161
238 237 163
242 238 241
244 208 211
246 224 227
248 247 69
250 245 248
252 239 240
254 250 253
256 243 254
258 234 256
i0 1 x1[7]
i1 1 x2[7]
i2 2 y1[5]
i3 2 y1[7]
i4 2 y1[0]
i5 2 y1[1]
i6 2 y1[2]
i7 2 y1[3]
i8 2 y1[4]
i9 2 y1[6]
i10 1 x1[1]
i11 1 x1[0]
i12 1 x1[2]
i13 1 x1[3]
i14 1 x1[4]
i15 1 x1[5]
i16 1 x1[6]
i17 1 x2[1]
i18 1 x2[2]
i19 1 x2[4]
i20 1 x2[5]
i21 1 x2[3]
i22 1 x2[6]
o0 bool[0]
c
simplified
  !=
    or
      1 x2
      1
    add
      abs
        2 y1
      1 x1
