words_hard_train/5051.qaiger.qdimacs
p cnf 129 319
a 1 2 33 100 69 105 42 77 113 52 87 120 60 95 31 0
e 3 4 5 6 7 8 9 10 11 12 13 14 15 16 17 18 19 20 21 22 23 24 25 26 27 28 29 30 32 34 35 36 37 38 39 40 41 43 44 45 46 47 48 49 50 51 53 54 55 56 57 58 59 61 62 63 64 65 66 67 68 70 71 72 73 74 75 76 78 79 80 81 82 83 84 85 86 88 89 90 91 92 93 94 96 97 98 99 101 102 103 104 106 107 108 109 110 111 112 114 115 116 117 118 119 121 122 123 124 125 126 127 128 129 0
-1 2 3 0
1 -3 0
-2 -3 0
1 -2 4 0
-1 -4 0
2 -4 0
3 4 5 0
-3 -5 0
-4 -5 0
-6 -7 8 0
6 -8 0
7 -8 0
9 10 11 0
-9 -11 0
-10 -11 0
-11 12 13 0
11 -13 0
-12 -13 0
-13 14 15 0
13 -15 0
-14 -15 0
15 -7 16 0
-15 -16 0
7 -16 0
16 17 18 0
-16 -18 0
-17 -18 0
18 -7 19 0
-18 -19 0
7 -19 0
8 19 20 0
-8 -20 0
-19 -20 0
-20 21 22 0
20 -22 0
-21 -22 0
-22 -7 23 0
22 -23 0
7 -23 0
5 -23 24 0
-5 -24 0
23 -24 0
-5 23 25 0
5 -25 0
-23 -25 0
24 25 26 0
-24 -26 0
-25 -26 0
-9 -7 27 0
9 -27 0
7 -27 0
-27 -10 28 0
27 -28 0
10 -28 0
27 10 29 0
-27 -29 0
-10 -29 0
28 29 30 0
-28 -30 0
-29 -30 0
-30 -31 32 0
30 -32 0
31 -32 0
-33 -9 34 0
33 -34 0
9 -34 0
32 34 35 0
-32 -35 0
-34 -35 0
30 31 36 0
-30 -36 0
-31 -36 0
35 36 37 0
-35 -37 0
-36 -37 0
11 -7 38 0
-11 -38 0
7 -38 0
38 -12 39 0
-38 -39 0
12 -39 0
-38 12 40 0
38 -40 0
-12 -40 0
39 40 41 0
-39 -41 0
-40 -41 0
-41 42 43 0
41 -43 0
-42 -43 0
41 -42 44 0
-41 -44 0
42 -44 0
43 44 45 0
-43 -45 0
-44 -45 0
-37 -45 46 0
37 -46 0
45 -46 0
46 44 47 0
-46 -47 0
-44 -47 0
13 -7 48 0
-13 -48 0
7 -48 0
48 14 49 0
-48 -49 0
-14 -49 0
-48 -14 50 0
48 -50 0
14 -50 0
49 50 51 0
-49 -51 0
-50 -51 0
51 52 53 0
-51 -53 0
-52 -53 0
-51 -52 54 0
51 -54 0
52 -54 0
53 54 55 0
-53 -55 0
-54 -55 0
47 -55 56 0
-47 -56 0
55 -56 0
56 54 57 0
-56 -57 0
-54 -57 0
-16 -17 58 0
16 -58 0
17 -58 0
58 18 59 0
-58 -59 0
-18 -59 0
59 60 61 0
-59 -61 0
-60 -61 0
-59 -60 62 0
59 -62 0
60 -62 0
61 62 63 0
-61 -63 0
-62 -63 0
57 -63 64 0
-57 -64 0
63 -64 0
64 62 65 0
-64 -65 0
-62 -65 0
-19 -6 66 0
19 -66 0
6 -66 0
19 6 67 0
-19 -67 0
-6 -67 0
66 67 68 0
-66 -68 0
-67 -68 0
68 69 70 0
-68 -70 0
-69 -70 0
-68 -69 71 0
68 -71 0
69 -71 0
70 71 72 0
-70 -72 0
-71 -72 0
65 -72 73 0
-65 -73 0
72 -73 0
73 71 74 0
-73 -74 0
-71 -74 0
20 -21 75 0
-20 -75 0
21 -75 0
22 75 76 0
-22 -76 0
-75 -76 0
76 77 78 0
-76 -78 0
-77 -78 0
-76 -77 79 0
76 -79 0
77 -79 0
78 79 80 0
-78 -80 0
-79 -80 0
74 -80 81 0
-74 -81 0
80 -81 0
81 79 82 0
-81 -82 0
-79 -82 0
26 82 83 0
-26 -83 0
-82 -83 0
-26 -82 84 0
26 -84 0
82 -84 0
83 84 85 0
-83 -85 0
-84 -85 0
32 36 86 0
-32 -86 0
-36 -86 0
-86 87 88 0
86 -88 0
-87 -88 0
86 -87 89 0
-86 -89 0
87 -89 0
88 89 90 0
-88 -90 0
-89 -90 0
33 9 91 0
-33 -91 0
-9 -91 0
-90 91 92 0
90 -92 0
-91 -92 0
37 45 93 0
-37 -93 0
-45 -93 0
93 46 94 0
-93 -94 0
-46 -94 0
-94 95 96 0
94 -96 0
-95 -96 0
-92 96 97 0
92 -97 0
-96 -97 0
-57 63 98 0
57 -98 0
-63 -98 0
98 64 99 0
-98 -99 0
-64 -99 0
-99 100 101 0
99 -101 0
-100 -101 0
-97 101 102 0
97 -102 0
-101 -102 0
-65 72 103 0
65 -103 0
-72 -103 0
103 73 104 0
-103 -104 0
-73 -104 0
104 -105 106 0
-104 -106 0
105 -106 0
-102 106 107 0
102 -107 0
-106 -107 0
94 -95 108 0
-94 -108 0
95 -108 0
99 -100 109 0
-99 -109 0
100 -109 0
108 109 110 0
-108 -110 0
-109 -110 0
-47 55 111 0
47 -111 0
-55 -111 0
111 56 112 0
-111 -112 0
-56 -112 0
112 -113 114 0
-112 -114 0
113 -114 0
-110 114 115 0
110 -115 0
-114 -115 0
-107 -115 116 0
107 -116 0
115 -116 0
-85 -116 117 0
85 -117 0
116 -117 0
-74 80 118 0
74 -118 0
-80 -118 0
118 81 119 0
-118 -119 0
-81 -119 0
-119 120 121 0
119 -121 0
-120 -121 0
-104 105 122 0
104 -122 0
-105 -122 0
-112 113 123 0
112 -123 0
-113 -123 0
123 34 124 0
-123 -124 0
-34 -124 0
122 -124 125 0
-122 -125 0
124 -125 0
119 -120 126 0
-119 -126 0
120 -126 0
-125 126 127 0
125 -127 0
-126 -127 0
121 -127 128 0
-121 -128 0
127 -128 0
-117 -128 129 0
117 -129 0
128 -129 0
-129 0
